50
17015

59 734
743 270
444 1000
611 386
415 978
981 259
572 28
647 32
723 371
904 349
135 1000
238 591
545 726
814 793
606 37
55 38
159 393
466 291
485 667
102 973
454 591
874 510
240 74
500 377
638 580
811 27
970 81
5 793
981 712
433 448
634 720
442 24
957 551
656 291
83 906
795 468
325 538
415 971
965 104
335 371
187 233
57 48
336 993
982 369
510 2
747 476
979 248
597 818
502 297
625 532
